NAME : tsp25_11.168.tour
COMMENT : Length = 168
COMMENT : Found by LKH [Keld Helsgaun]
TYPE : TOUR
DIMENSION : 25
TOUR_SECTION
1
11
4
18
9
23
19
5
12
13
22
2
6
21
3
15
14
20
17
16
25
7
8
10
24
-1
EOF
